;; sequence(s): A83331
;; terms: 1 5 26 137 722 3785 19706 101897 523682 2677385 13629386 69136457 349699442 1764742985 8889229466 44709799817 224608392002 1127293880585 5653520131946 28335932715977
;; small program: loop2((2 * (x + x)) + y, (2 * (y + y)) + x, x, 2, 1) - loop(x + x, x + x, 1)
;; fast program: ((loop2(x * y, y, x div 2, loop(1 + 2, x mod 2, 1), 1 + (2 * (2 + 2))) + loop2(x * y, y, x, 1 + 2, 1 + (2 + 2))) div 2) - loop(x * x, 1, loop(x + x, x, 1))
(set-logic UFNIA)
(define-fun divf ((a Int) (b Int)) Int (ite (< 0 b) (div a b) (div (- a) (- b))))
(define-fun modf ((a Int) (b Int)) Int (ite (< 0 b) (mod a b) (- (mod (- a) (- b)))))
(declare-fun f0 (Int Int) Int)
(declare-fun g0 (Int Int) Int)
(declare-fun h0 (Int) Int)
(declare-fun i0 () Int)
(declare-fun j0 () Int)
(declare-fun u0 (Int Int Int) Int)
(declare-fun v0 (Int Int Int) Int)
(declare-fun w0 (Int) Int)
(declare-fun f1 (Int) Int)
(declare-fun g1 (Int) Int)
(declare-fun h1 () Int)
(declare-fun u1 (Int Int) Int)
(declare-fun v1 (Int) Int)
(declare-fun small (Int) Int)
(declare-fun f2 (Int Int) Int)
(declare-fun g2 (Int Int) Int)
(declare-fun h2 (Int) Int)
(declare-fun f3 () Int)
(declare-fun g3 (Int) Int)
(declare-fun h3 () Int)
(declare-fun u3 (Int Int) Int)
(declare-fun v3 (Int) Int)
(declare-fun i2 (Int) Int)
(declare-fun j2 () Int)
(declare-fun u2 (Int Int Int) Int)
(declare-fun v2 (Int Int Int) Int)
(declare-fun w2 (Int) Int)
(declare-fun f4 (Int Int) Int)
(declare-fun g4 (Int Int) Int)
(declare-fun h4 (Int) Int)
(declare-fun i4 () Int)
(declare-fun j4 () Int)
(declare-fun u4 (Int Int Int) Int)
(declare-fun v4 (Int Int Int) Int)
(declare-fun w4 (Int) Int)
(declare-fun f5 (Int) Int)
(declare-fun g5 () Int)
(declare-fun f6 (Int) Int)
(declare-fun g6 (Int) Int)
(declare-fun h6 () Int)
(declare-fun u6 (Int Int) Int)
(declare-fun v6 (Int) Int)
(declare-fun h5 (Int) Int)
(declare-fun u5 (Int Int) Int)
(declare-fun v5 (Int) Int)
(declare-fun fast (Int) Int)
(assert (forall ((x Int) (y Int)) (= (f0 x y) (+ (* 2 (+ x x)) y))))
(assert (forall ((x Int) (y Int)) (= (g0 x y) (+ (* 2 (+ y y)) x))))
(assert (forall ((x Int)) (= (h0 x) x)))
(assert (= i0 2))
(assert (= j0 1))
(assert (forall ((x Int) (y Int) (z Int)) (= (u0 x y z) (ite (<= x 0) y (f0 (u0 (- x 1) y z) (v0 (- x 1) y z))))))
(assert (forall ((x Int) (y Int) (z Int)) (= (v0 x y z) (ite (<= x 0) z (g0 (u0 (- x 1) y z) (v0 (- x 1) y z))))))
(assert (forall ((x Int)) (= (w0 x) (u0 (h0 x) i0 j0))))
(assert (forall ((x Int)) (= (f1 x) (+ x x))))
(assert (forall ((x Int)) (= (g1 x) (+ x x))))
(assert (= h1 1))
(assert (forall ((x Int) (y Int)) (= (u1 x y) (ite (<= x 0) y (f1 (u1 (- x 1) y))))))
(assert (forall ((x Int)) (= (v1 x) (u1 (g1 x) h1))))
(assert (forall ((x Int)) (= (small x) (- (w0 x) (v1 x)))))
(assert (forall ((x Int) (y Int)) (= (f2 x y) (* x y))))
(assert (forall ((x Int) (y Int)) (= (g2 x y) y)))
(assert (forall ((x Int)) (= (h2 x) (divf x 2))))
(assert (= f3 (+ 1 2)))
(assert (forall ((x Int)) (= (g3 x) (modf x 2))))
(assert (= h3 1))
(assert (forall ((x Int) (y Int)) (= (u3 x y) (ite (<= x 0) y f3))))
(assert (forall ((x Int)) (= (v3 x) (u3 (g3 x) h3))))
(assert (forall ((x Int)) (= (i2 x) (v3 x))))
(assert (= j2 (+ 1 (* 2 (+ 2 2)))))
(assert (forall ((x Int) (y Int) (z Int)) (= (u2 x y z) (ite (<= x 0) y (f2 (u2 (- x 1) y z) (v2 (- x 1) y z))))))
(assert (forall ((x Int) (y Int) (z Int)) (= (v2 x y z) (ite (<= x 0) z (g2 (u2 (- x 1) y z) (v2 (- x 1) y z))))))
(assert (forall ((x Int)) (= (w2 x) (u2 (h2 x) (i2 x) j2))))
(assert (forall ((x Int) (y Int)) (= (f4 x y) (* x y))))
(assert (forall ((x Int) (y Int)) (= (g4 x y) y)))
(assert (forall ((x Int)) (= (h4 x) x)))
(assert (= i4 (+ 1 2)))
(assert (= j4 (+ 1 (+ 2 2))))
(assert (forall ((x Int) (y Int) (z Int)) (= (u4 x y z) (ite (<= x 0) y (f4 (u4 (- x 1) y z) (v4 (- x 1) y z))))))
(assert (forall ((x Int) (y Int) (z Int)) (= (v4 x y z) (ite (<= x 0) z (g4 (u4 (- x 1) y z) (v4 (- x 1) y z))))))
(assert (forall ((x Int)) (= (w4 x) (u4 (h4 x) i4 j4))))
(assert (forall ((x Int)) (= (f5 x) (* x x))))
(assert (= g5 1))
(assert (forall ((x Int)) (= (f6 x) (+ x x))))
(assert (forall ((x Int)) (= (g6 x) x)))
(assert (= h6 1))
(assert (forall ((x Int) (y Int)) (= (u6 x y) (ite (<= x 0) y (f6 (u6 (- x 1) y))))))
(assert (forall ((x Int)) (= (v6 x) (u6 (g6 x) h6))))
(assert (forall ((x Int)) (= (h5 x) (v6 x))))
(assert (forall ((x Int) (y Int)) (= (u5 x y) (ite (<= x 0) y (f5 (u5 (- x 1) y))))))
(assert (forall ((x Int)) (= (v5 x) (u5 g5 (h5 x)))))
(assert (forall ((x Int)) (= (fast x) (- (divf (+ (w2 x) (w4 x)) 2) (v5 x)))))
(assert (exists ((c Int)) (and (>= c 0) (not (= (small c) (fast c))))))
(check-sat)
